HFVRP/X190-FSMF.vrp
NAME: X190-FSMF
COMMENT: Generated by Uchoa, Pecin, Pessoa, Poggi, Subramanian, and Vidal (2013). Modified by Sadykov, Pessoa and Uchoa (2017). Converted to PyVRP's VRPLIB dialect.
TYPE: HFVRP
DIMENSION: 190
VEHICLES: 567
EDGE_WEIGHT_TYPE: EUC_2D
NODE_COORD_SECTION
1	0	0
2	425	323
3	806	514
4	853	637
5	564	311
6	871	502
7	803	526
8	822	680
9	827	577
10	834	646
11	636	403
12	699	724
13	830	479
14	486	257
15	411	384
16	881	642
17	424	422
18	807	718
19	949	612
20	362	135
21	836	662
22	791	570
23	822	508
24	794	622
25	823	464
26	803	367
27	390	502
28	868	651
29	732	456
30	356	253
31	794	481
32	356	312
33	994	676
34	817	658
35	591	333
36	776	532
37	811	509
38	298	246
39	813	517
40	793	488
41	944	655
42	901	555
43	847	594
44	696	429
45	454	303
46	369	330
47	721	539
48	874	502
49	860	564
50	381	508
51	773	575
52	671	571
53	901	482
54	852	672
55	887	576
56	805	608
57	828	575
58	434	177
59	715	450
60	827	622
61	757	746
62	977	648
63	826	595
64	439	212
65	514	184
66	836	661
67	503	227
68	499	447
69	792	564
70	791	599
71	932	582
72	904	484
73	453	362
74	636	374
75	781	639
76	723	590
77	911	613
78	834	510
79	786	449
80	772	732
81	776	461
82	749	533
83	825	882
84	401	275
85	965	597
86	760	479
87	841	501
88	901	531
89	443	318
90	771	511
91	854	615
92	821	631
93	734	539
94	705	577
95	773	573
96	646	327
97	842	630
98	806	436
99	960	576
100	350	337
101	828	580
102	876	502
103	532	332
104	518	383
105	770	509
106	251	3
107	264	445
108	817	655
109	493	395
110	777	522
111	525	263
112	793	632
113	713	403
114	810	633
115	837	649
116	757	561
117	766	750
118	411	544
119	315	293
120	362	490
121	484	275
122	754	590
123	736	784
124	911	461
125	882	671
126	845	506
127	895	582
128	453	298
129	581	300
130	472	372
131	828	569
132	296	298
133	766	642
134	461	360
135	771	657
136	727	553
137	883	400
138	853	527
139	748	466
140	447	363
141	884	716
142	953	573
143	748	499
144	818	424
145	761	559
146	754	551
147	915	521
148	802	462
149	997	502
150	411	333
151	797	466
152	873	543
153	902	534
154	981	614
155	843	695
156	796	701
157	459	378
158	681	627
159	781	616
160	726	474
161	407	302
162	782	644
163	832	667
164	575	296
165	788	619
166	430	313
167	593	548
168	945	400
169	490	287
170	772	449
171	419	448
172	499	256
173	427	245
174	720	625
175	871	555
176	701	703
177	859	496
178	925	476
179	790	585
180	811	591
181	991	637
182	902	569
183	405	298
184	861	389
185	394	306
186	942	611
187	912	528
188	876	663
189	399	126
190	850	696
DEMAND_SECTION
1	0
2	3
3	7
4	2
5	4
6	3
7	2
8	4
9	1
10	6
11	6
12	9
13	2
14	4
15	1
16	8
17	4
18	2
19	5
20	4
21	9
22	10
23	8
24	1
25	8
26	5
27	7
28	10
29	3
30	3
31	9
32	1
33	3
34	9
35	6
36	5
37	7
38	8
39	6
40	5
41	4
42	10
43	8
44	5
45	7
46	5
47	6
48	2
49	1
50	3
51	6
52	2
53	3
54	4
55	1
56	7
57	3
58	5
59	10
60	5
61	9
62	1
63	8
64	6
65	3
66	2
67	8
68	1
69	4
70	4
71	9
72	5
73	4
74	4
75	5
76	4
77	9
78	6
79	1
80	10
81	10
82	9
83	3
84	3
85	10
86	10
87	8
88	4
89	7
90	7
91	6
92	8
93	7
94	6
95	7
96	2
97	3
98	9
99	9
100	10
101	4
102	5
103	1
104	8
105	6
106	5
107	1
108	5
109	7
110	1
111	7
112	6
113	6
114	8
115	4
116	8
117	9
118	3
119	1
120	7
121	5
122	1
123	10
124	7
125	5
126	2
127	8
128	5
129	6
130	7
131	7
132	3
133	5
134	2
135	4
136	10
137	3
138	2
139	4
140	8
141	10
142	3
143	7
144	6
145	3
146	8
147	4
148	6
149	10
150	4
151	10
152	1
153	1
154	5
155	9
156	4
157	3
158	10
159	3
160	9
161	7
162	6
163	8
164	10
165	7
166	10
167	10
168	6
169	1
170	1
171	1
172	4
173	8
174	4
175	10
176	5
177	4
178	7
179	10
180	9
181	1
182	6
183	9
184	3
185	8
186	5
187	9
188	8
189	1
190	5
CAPACITY_SECTION
1	59
2	59
3	59
4	59
5	59
6	59
7	59
8	59
9	59
10	59
11	59
12	59
13	59
14	59
15	59
16	59
17	59
18	59
19	59
20	59
21	59
22	59
23	59
24	59
25	59
26	59
27	59
28	59
29	59
30	59
31	59
32	59
33	59
34	59
35	59
36	59
37	59
38	59
39	59
40	59
41	59
42	59
43	59
44	59
45	59
46	59
47	59
48	59
49	59
50	59
51	59
52	59
53	59
54	59
55	59
56	59
57	59
58	59
59	59
60	59
61	59
62	59
63	59
64	59
65	59
66	59
67	59
68	59
69	59
70	59
71	59
72	59
73	59
74	59
75	59
76	59
77	59
78	59
79	59
80	59
81	59
82	59
83	59
84	59
85	59
86	59
87	59
88	59
89	59
90	59
91	59
92	59
93	59
94	59
95	59
96	59
97	59
98	59
99	59
100	59
101	59
102	59
103	59
104	59
105	59
106	59
107	59
108	59
109	59
110	59
111	59
112	59
113	59
114	59
115	59
116	59
117	59
118	59
119	59
120	59
121	59
122	59
123	59
124	59
125	59
126	59
127	59
128	59
129	59
130	59
131	59
132	59
133	59
134	59
135	59
136	59
137	59
138	59
139	59
140	59
141	59
142	59
143	59
144	59
145	59
146	59
147	59
148	59
149	59
150	59
151	59
152	59
153	59
154	59
155	59
156	59
157	59
158	59
159	59
160	59
161	59
162	59
163	59
164	59
165	59
166	59
167	59
168	59
169	59
170	59
171	59
172	59
173	59
174	59
175	59
176	59
177	59
178	59
179	59
180	59
181	59
182	59
183	59
184	59
185	59
186	59
187	59
188	59
189	59
190	118
191	118
192	118
193	118
194	118
195	118
196	118
197	118
198	118
199	118
200	118
201	118
202	118
203	118
204	118
205	118
206	118
207	118
208	118
209	118
210	118
211	118
212	118
213	118
214	118
215	118
216	118
217	118
218	118
219	118
220	118
221	118
222	118
223	118
224	118
225	118
226	118
227	118
228	118
229	118
230	118
231	118
232	118
233	118
234	118
235	118
236	118
237	118
238	118
239	118
240	118
241	118
242	118
243	118
244	118
245	118
246	118
247	118
248	118
249	118
250	118
251	118
252	118
253	118
254	118
255	118
256	118
257	118
258	118
259	118
260	118
261	118
262	118
263	118
264	118
265	118
266	118
267	118
268	118
269	118
270	118
271	118
272	118
273	118
274	118
275	118
276	118
277	118
278	118
279	118
280	118
281	118
282	118
283	118
284	118
285	118
286	118
287	118
288	118
289	118
290	118
291	118
292	118
293	118
294	118
295	118
296	118
297	118
298	118
299	118
300	118
301	118
302	118
303	118
304	118
305	118
306	118
307	118
308	118
309	118
310	118
311	118
312	118
313	118
314	118
315	118
316	118
317	118
318	118
319	118
320	118
321	118
322	118
323	118
324	118
325	118
326	118
327	118
328	118
329	118
330	118
331	118
332	118
333	118
334	118
335	118
336	118
337	118
338	118
339	118
340	118
341	118
342	118
343	118
344	118
345	118
346	118
347	118
348	118
349	118
350	118
351	118
352	118
353	118
354	118
355	118
356	118
357	118
358	118
359	118
360	118
361	118
362	118
363	118
364	118
365	118
366	118
367	118
368	118
369	118
370	118
371	118
372	118
373	118
374	118
375	118
376	118
377	118
378	118
379	237
380	237
381	237
382	237
383	237
384	237
385	237
386	237
387	237
388	237
389	237
390	237
391	237
392	237
393	237
394	237
395	237
396	237
397	237
398	237
399	237
400	237
401	237
402	237
403	237
404	237
405	237
406	237
407	237
408	237
409	237
410	237
411	237
412	237
413	237
414	237
415	237
416	237
417	237
418	237
419	237
420	237
421	237
422	237
423	237
424	237
425	237
426	237
427	237
428	237
429	237
430	237
431	237
432	237
433	237
434	237
435	237
436	237
437	237
438	237
439	237
440	237
441	237
442	237
443	237
444	237
445	237
446	237
447	237
448	237
449	237
450	237
451	237
452	237
453	237
454	237
455	237
456	237
457	237
458	237
459	237
460	237
461	237
462	237
463	237
464	237
465	237
466	237
467	237
468	237
469	237
470	237
471	237
472	237
473	237
474	237
475	237
476	237
477	237
478	237
479	237
480	237
481	237
482	237
483	237
484	237
485	237
486	237
487	237
488	237
489	237
490	237
491	237
492	237
493	237
494	237
495	237
496	237
497	237
498	237
499	237
500	237
501	237
502	237
503	237
504	237
505	237
506	237
507	237
508	237
509	237
510	237
511	237
512	237
513	237
514	237
515	237
516	237
517	237
518	237
519	237
520	237
521	237
522	237
523	237
524	237
525	237
526	237
527	237
528	237
529	237
530	237
531	237
532	237
533	237
534	237
535	237
536	237
537	237
538	237
539	237
540	237
541	237
542	237
543	237
544	237
545	237
546	237
547	237
548	237
549	237
550	237
551	237
552	237
553	237
554	237
555	237
556	237
557	237
558	237
559	237
560	237
561	237
562	237
563	237
564	237
565	237
566	237
567	237
VEHICLES_FIXED_COST_SECTION
1	31000
2	31000
3	31000
4	31000
5	31000
6	31000
7	31000
8	31000
9	31000
10	31000
11	31000
12	31000
13	31000
14	31000
15	31000
16	31000
17	31000
18	31000
19	31000
20	31000
21	31000
22	31000
23	31000
24	31000
25	31000
26	31000
27	31000
28	31000
29	31000
30	31000
31	31000
32	31000
33	31000
34	31000
35	31000
36	31000
37	31000
38	31000
39	31000
40	31000
41	31000
42	31000
43	31000
44	31000
45	31000
46	31000
47	31000
48	31000
49	31000
50	31000
51	31000
52	31000
53	31000
54	31000
55	31000
56	31000
57	31000
58	31000
59	31000
60	31000
61	31000
62	31000
63	31000
64	31000
65	31000
66	31000
67	31000
68	31000
69	31000
70	31000
71	31000
72	31000
73	31000
74	31000
75	31000
76	31000
77	31000
78	31000
79	31000
80	31000
81	31000
82	31000
83	31000
84	31000
85	31000
86	31000
87	31000
88	31000
89	31000
90	31000
91	31000
92	31000
93	31000
94	31000
95	31000
96	31000
97	31000
98	31000
99	31000
100	31000
101	31000
102	31000
103	31000
104	31000
105	31000
106	31000
107	31000
108	31000
109	31000
110	31000
111	31000
112	31000
113	31000
114	31000
115	31000
116	31000
117	31000
118	31000
119	31000
120	31000
121	31000
122	31000
123	31000
124	31000
125	31000
126	31000
127	31000
128	31000
129	31000
130	31000
131	31000
132	31000
133	31000
134	31000
135	31000
136	31000
137	31000
138	31000
139	31000
140	31000
141	31000
142	31000
143	31000
144	31000
145	31000
146	31000
147	31000
148	31000
149	31000
150	31000
151	31000
152	31000
153	31000
154	31000
155	31000
156	31000
157	31000
158	31000
159	31000
160	31000
161	31000
162	31000
163	31000
164	31000
165	31000
166	31000
167	31000
168	31000
169	31000
170	31000
171	31000
172	31000
173	31000
174	31000
175	31000
176	31000
177	31000
178	31000
179	31000
180	31000
181	31000
182	31000
183	31000
184	31000
185	31000
186	31000
187	31000
188	31000
189	31000
190	72600
191	72600
192	72600
193	72600
194	72600
195	72600
196	72600
197	72600
198	72600
199	72600
200	72600
201	72600
202	72600
203	72600
204	72600
205	72600
206	72600
207	72600
208	72600
209	72600
210	72600
211	72600
212	72600
213	72600
214	72600
215	72600
216	72600
217	72600
218	72600
219	72600
220	72600
221	72600
222	72600
223	72600
224	72600
225	72600
226	72600
227	72600
228	72600
229	72600
230	72600
231	72600
232	72600
233	72600
234	72600
235	72600
236	72600
237	72600
238	72600
239	72600
240	72600
241	72600
242	72600
243	72600
244	72600
245	72600
246	72600
247	72600
248	72600
249	72600
250	72600
251	72600
252	72600
253	72600
254	72600
255	72600
256	72600
257	72600
258	72600
259	72600
260	72600
261	72600
262	72600
263	72600
264	72600
265	72600
266	72600
267	72600
268	72600
269	72600
270	72600
271	72600
272	72600
273	72600
274	72600
275	72600
276	72600
277	72600
278	72600
279	72600
280	72600
281	72600
282	72600
283	72600
284	72600
285	72600
286	72600
287	72600
288	72600
289	72600
290	72600
291	72600
292	72600
293	72600
294	72600
295	72600
296	72600
297	72600
298	72600
299	72600
300	72600
301	72600
302	72600
303	72600
304	72600
305	72600
306	72600
307	72600
308	72600
309	72600
310	72600
311	72600
312	72600
313	72600
314	72600
315	72600
316	72600
317	72600
318	72600
319	72600
320	72600
321	72600
322	72600
323	72600
324	72600
325	72600
326	72600
327	72600
328	72600
329	72600
330	72600
331	72600
332	72600
333	72600
334	72600
335	72600
336	72600
337	72600
338	72600
339	72600
340	72600
341	72600
342	72600
343	72600
344	72600
345	72600
346	72600
347	72600
348	72600
349	72600
350	72600
351	72600
352	72600
353	72600
354	72600
355	72600
356	72600
357	72600
358	72600
359	72600
360	72600
361	72600
362	72600
363	72600
364	72600
365	72600
366	72600
367	72600
368	72600
369	72600
370	72600
371	72600
372	72600
373	72600
374	72600
375	72600
376	72600
377	72600
378	72600
379	165800
380	165800
381	165800
382	165800
383	165800
384	165800
385	165800
386	165800
387	165800
388	165800
389	165800
390	165800
391	165800
392	165800
393	165800
394	165800
395	165800
396	165800
397	165800
398	165800
399	165800
400	165800
401	165800
402	165800
403	165800
404	165800
405	165800
406	165800
407	165800
408	165800
409	165800
410	165800
411	165800
412	165800
413	165800
414	165800
415	165800
416	165800
417	165800
418	165800
419	165800
420	165800
421	165800
422	165800
423	165800
424	165800
425	165800
426	165800
427	165800
428	165800
429	165800
430	165800
431	165800
432	165800
433	165800
434	165800
435	165800
436	165800
437	165800
438	165800
439	165800
440	165800
441	165800
442	165800
443	165800
444	165800
445	165800
446	165800
447	165800
448	165800
449	165800
450	165800
451	165800
452	165800
453	165800
454	165800
455	165800
456	165800
457	165800
458	165800
459	165800
460	165800
461	165800
462	165800
463	165800
464	165800
465	165800
466	165800
467	165800
468	165800
469	165800
470	165800
471	165800
472	165800
473	165800
474	165800
475	165800
476	165800
477	165800
478	165800
479	165800
480	165800
481	165800
482	165800
483	165800
484	165800
485	165800
486	165800
487	165800
488	165800
489	165800
490	165800
491	165800
492	165800
493	165800
494	165800
495	165800
496	165800
497	165800
498	165800
499	165800
500	165800
501	165800
502	165800
503	165800
504	165800
505	165800
506	165800
507	165800
508	165800
509	165800
510	165800
511	165800
512	165800
513	165800
514	165800
515	165800
516	165800
517	165800
518	165800
519	165800
520	165800
521	165800
522	165800
523	165800
524	165800
525	165800
526	165800
527	165800
528	165800
529	165800
530	165800
531	165800
532	165800
533	165800
534	165800
535	165800
536	165800
537	165800
538	165800
539	165800
540	165800
541	165800
542	165800
543	165800
544	165800
545	165800
546	165800
547	165800
548	165800
549	165800
550	165800
551	165800
552	165800
553	165800
554	165800
555	165800
556	165800
557	165800
558	165800
559	165800
560	165800
561	165800
562	165800
563	165800
564	165800
565	165800
566	165800
567	165800
VEHICLES_UNIT_DISTANCE_COST_SECTION
1	100
2	100
3	100
4	100
5	100
6	100
7	100
8	100
9	100
10	100
11	100
12	100
13	100
14	100
15	100
16	100
17	100
18	100
19	100
20	100
21	100
22	100
23	100
24	100
25	100
26	100
27	100
28	100
29	100
30	100
31	100
32	100
33	100
34	100
35	100
36	100
37	100
38	100
39	100
40	100
41	100
42	100
43	100
44	100
45	100
46	100
47	100
48	100
49	100
50	100
51	100
52	100
53	100
54	100
55	100
56	100
57	100
58	100
59	100
60	100
61	100
62	100
63	100
64	100
65	100
66	100
67	100
68	100
69	100
70	100
71	100
72	100
73	100
74	100
75	100
76	100
77	100
78	100
79	100
80	100
81	100
82	100
83	100
84	100
85	100
86	100
87	100
88	100
89	100
90	100
91	100
92	100
93	100
94	100
95	100
96	100
97	100
98	100
99	100
100	100
101	100
102	100
103	100
104	100
105	100
106	100
107	100
108	100
109	100
110	100
111	100
112	100
113	100
114	100
115	100
116	100
117	100
118	100
119	100
120	100
121	100
122	100
123	100
124	100
125	100
126	100
127	100
128	100
129	100
130	100
131	100
132	100
133	100
134	100
135	100
136	100
137	100
138	100
139	100
140	100
141	100
142	100
143	100
144	100
145	100
146	100
147	100
148	100
149	100
150	100
151	100
152	100
153	100
154	100
155	100
156	100
157	100
158	100
159	100
160	100
161	100
162	100
163	100
164	100
165	100
166	100
167	100
168	100
169	100
170	100
171	100
172	100
173	100
174	100
175	100
176	100
177	100
178	100
179	100
180	100
181	100
182	100
183	100
184	100
185	100
186	100
187	100
188	100
189	100
190	100
191	100
192	100
193	100
194	100
195	100
196	100
197	100
198	100
199	100
200	100
201	100
202	100
203	100
204	100
205	100
206	100
207	100
208	100
209	100
210	100
211	100
212	100
213	100
214	100
215	100
216	100
217	100
218	100
219	100
220	100
221	100
222	100
223	100
224	100
225	100
226	100
227	100
228	100
229	100
230	100
231	100
232	100
233	100
234	100
235	100
236	100
237	100
238	100
239	100
240	100
241	100
242	100
243	100
244	100
245	100
246	100
247	100
248	100
249	100
250	100
251	100
252	100
253	100
254	100
255	100
256	100
257	100
258	100
259	100
260	100
261	100
262	100
263	100
264	100
265	100
266	100
267	100
268	100
269	100
270	100
271	100
272	100
273	100
274	100
275	100
276	100
277	100
278	100
279	100
280	100
281	100
282	100
283	100
284	100
285	100
286	100
287	100
288	100
289	100
290	100
291	100
292	100
293	100
294	100
295	100
296	100
297	100
298	100
299	100
300	100
301	100
302	100
303	100
304	100
305	100
306	100
307	100
308	100
309	100
310	100
311	100
312	100
313	100
314	100
315	100
316	100
317	100
318	100
319	100
320	100
321	100
322	100
323	100
324	100
325	100
326	100
327	100
328	100
329	100
330	100
331	100
332	100
333	100
334	100
335	100
336	100
337	100
338	100
339	100
340	100
341	100
342	100
343	100
344	100
345	100
346	100
347	100
348	100
349	100
350	100
351	100
352	100
353	100
354	100
355	100
356	100
357	100
358	100
359	100
360	100
361	100
362	100
363	100
364	100
365	100
366	100
367	100
368	100
369	100
370	100
371	100
372	100
373	100
374	100
375	100
376	100
377	100
378	100
379	100
380	100
381	100
382	100
383	100
384	100
385	100
386	100
387	100
388	100
389	100
390	100
391	100
392	100
393	100
394	100
395	100
396	100
397	100
398	100
399	100
400	100
401	100
402	100
403	100
404	100
405	100
406	100
407	100
408	100
409	100
410	100
411	100
412	100
413	100
414	100
415	100
416	100
417	100
418	100
419	100
420	100
421	100
422	100
423	100
424	100
425	100
426	100
427	100
428	100
429	100
430	100
431	100
432	100
433	100
434	100
435	100
436	100
437	100
438	100
439	100
440	100
441	100
442	100
443	100
444	100
445	100
446	100
447	100
448	100
449	100
450	100
451	100
452	100
453	100
454	100
455	100
456	100
457	100
458	100
459	100
460	100
461	100
462	100
463	100
464	100
465	100
466	100
467	100
468	100
469	100
470	100
471	100
472	100
473	100
474	100
475	100
476	100
477	100
478	100
479	100
480	100
481	100
482	100
483	100
484	100
485	100
486	100
487	100
488	100
489	100
490	100
491	100
492	100
493	100
494	100
495	100
496	100
497	100
498	100
499	100
500	100
501	100
502	100
503	100
504	100
505	100
506	100
507	100
508	100
509	100
510	100
511	100
512	100
513	100
514	100
515	100
516	100
517	100
518	100
519	100
520	100
521	100
522	100
523	100
524	100
525	100
526	100
527	100
528	100
529	100
530	100
531	100
532	100
533	100
534	100
535	100
536	100
537	100
538	100
539	100
540	100
541	100
542	100
543	100
544	100
545	100
546	100
547	100
548	100
549	100
550	100
551	100
552	100
553	100
554	100
555	100
556	100
557	100
558	100
559	100
560	100
561	100
562	100
563	100
564	100
565	100
566	100
567	100
DEPOT_SECTION
1
EOF
